NAME          ClpDefau
ROWS
 N  OBJROW
 L  R_136_0
 L  R_136_1
 L  R_136_2
 L  R_136_3
 L  R_136_4
 L  R_136_5
 L  R_136_6
 L  R_136_7
 L  R_136_8
 L  R_136_9
 L  R_136_10
 L  R_136_11
 L  R_136_12
 L  R_136_13
 L  R_136_14
 L  R_136_15
COLUMNS
    x_0       OBJROW     -1.           R_136_1   88.         
    x_0       R_136_2   56.         
    x_1       OBJROW     -2.           R_136_1   23.         
    x_1       R_136_3   42.            R_136_4   66.         
    x_1       R_136_8   58.         
    x_2       OBJROW     -2.           R_136_1   97.         
    x_3       OBJROW     -6.        
    x_4       OBJROW     -3.           R_136_7   25.         
    x_4       R_136_9   74.            R_136_14  67.         
    x_4       R_136_15  35.         
    x_5       OBJROW     -5.           R_136_5   47.         
    x_5       R_136_8   15.            R_136_10  94.         
    x_5       R_136_13  21.         
    x_6       OBJROW     -5.           R_136_0   76.         
    x_6       R_136_1   32.            R_136_2   5.          
    x_6       R_136_3   79.            R_136_11  34.         
    x_7       OBJROW     -10.          R_136_3   58.         
RHS
    RHS       R_136_0   37.            R_136_1   105.        
    RHS       R_136_2   27.            R_136_3   52.         
    RHS       R_136_4   24.            R_136_5   36.         
    RHS       R_136_6   40.            R_136_7   41.         
    RHS       R_136_8   32.            R_136_9   78.         
    RHS       R_136_10  101.           R_136_11  49.         
    RHS       R_136_12  85.            R_136_13  24.         
    RHS       R_136_14  51.            R_136_15  49.         
BOUNDS
 UI BOUND     x_0       10.         
 UI BOUND     x_1       10.         
 UI BOUND     x_2       10.         
 UI BOUND     x_3       10.         
 UI BOUND     x_4       10.         
 UI BOUND     x_5       10.         
 UI BOUND     x_6       10.         
 UI BOUND     x_7       10.         
ENDATA
